p edge 79 290
e 1 23
e 1 26
e 1 32
e 1 34
e 1 37
e 1 52
e 1 55
e 1 65
e 1 70
e 1 73
e 2 21
e 2 23
e 2 28
e 2 32
e 2 33
e 2 35
e 2 44
e 2 69
e 3 39
e 3 52
e 3 53
e 3 58
e 3 70
e 3 77
e 4 5
e 4 7
e 4 25
e 4 53
e 4 74
e 5 15
e 5 22
e 5 24
e 5 28
e 5 31
e 5 33
e 5 46
e 5 51
e 6 11
e 6 17
e 6 19
e 6 30
e 6 31
e 6 66
e 7 34
e 7 35
e 7 36
e 7 44
e 7 49
e 7 66
e 7 69
e 7 76
e 7 77
e 7 78
e 8 12
e 8 18
e 9 16
e 9 21
e 9 30
e 9 36
e 9 44
e 9 56
e 10 26
e 10 32
e 10 34
e 10 66
e 11 23
e 11 38
e 11 42
e 11 59
e 11 68
e 12 30
e 12 31
e 12 62
e 12 63
e 12 75
e 12 79
e 13 33
e 13 43
e 13 46
e 13 47
e 13 53
e 13 58
e 13 65
e 13 67
e 13 71
e 13 72
e 14 16
e 14 19
e 14 33
e 14 48
e 14 59
e 14 73
e 15 19
e 15 24
e 15 46
e 15 51
e 15 77
e 16 29
e 16 30
e 16 32
e 16 45
e 16 50
e 16 51
e 16 67
e 17 49
e 17 59
e 17 66
e 17 72
e 18 23
e 18 28
e 18 38
e 18 49
e 18 60
e 18 70
e 18 78
e 19 29
e 19 31
e 19 32
e 19 48
e 19 56
e 19 59
e 19 66
e 20 24
e 20 26
e 20 30
e 20 60
e 20 64
e 20 72
e 21 22
e 21 31
e 21 33
e 21 35
e 21 36
e 21 53
e 21 56
e 21 57
e 21 78
e 22 23
e 22 24
e 22 35
e 22 37
e 22 63
e 22 65
e 23 43
e 23 53
e 23 59
e 24 33
e 24 45
e 24 66
e 24 69
e 24 71
e 24 78
e 25 26
e 25 28
e 25 31
e 25 41
e 25 50
e 25 59
e 25 66
e 25 69
e 25 79
e 26 34
e 26 36
e 26 41
e 26 68
e 27 45
e 27 49
e 27 54
e 27 56
e 27 64
e 28 43
e 28 48
e 28 50
e 28 55
e 28 64
e 28 78
e 29 58
e 29 75
e 29 77
e 30 36
e 30 43
e 30 48
e 30 62
e 30 69
e 30 73
e 30 79
e 31 32
e 31 36
e 32 54
e 33 47
e 33 50
e 33 57
e 34 37
e 34 42
e 34 43
e 34 55
e 34 59
e 34 60
e 34 62
e 34 65
e 34 71
e 35 36
e 35 38
e 35 62
e 35 64
e 35 67
e 36 51
e 36 53
e 37 42
e 37 46
e 37 54
e 37 66
e 37 69
e 37 70
e 37 75
e 38 57
e 38 60
e 38 67
e 39 62
e 39 65
e 40 43
e 40 56
e 40 57
e 40 62
e 40 73
e 41 52
e 41 55
e 41 57
e 41 59
e 41 78
e 41 79
e 42 44
e 42 58
e 42 64
e 43 53
e 43 66
e 43 69
e 43 75
e 44 54
e 44 67
e 45 50
e 45 62
e 45 72
e 45 73
e 46 53
e 46 66
e 47 66
e 48 63
e 48 66
e 49 54
e 49 65
e 49 74
e 50 57
e 50 69
e 50 79
e 51 65
e 51 69
e 51 71
e 52 64
e 52 79
e 53 55
e 53 56
e 53 73
e 53 75
e 54 71
e 55 56
e 55 60
e 56 63
e 57 67
e 57 68
e 57 79
e 58 67
e 58 73
e 58 78
e 60 64
e 61 66
e 62 63
e 63 70
e 64 66
e 64 67
e 65 67
e 65 77
e 66 69
e 66 73
e 67 71
e 67 76
e 68 78
e 69 70
e 69 76
e 75 77
